mixintcount/benchmarks/random_v2l/5_5_398.in
20 7
#	x1	x2	x3	x4	x5;		0 = Real; 1 = Integer
	1	1	1	1	1
1	-9	-8	-4	-9	3	-227
1	-3	-10	1	3	-8	-239
1	7	0	3	3	9	-327
1	-6	5	-3	0	5	-198
1	-2	4	-6	-3	6	47
1	-10	7	6	-4	6	-85
1	-5	-7	-4	7	4	-145
1	-6	0	6	8	-10	38
1	-10	-6	-3	-3	3	-393
1	-5	9	3	-1	-5	-185
1	1	0	0	0	0	398
1	-1	0	0	0	0	398
1	0	1	0	0	0	398
1	0	-1	0	0	0	398
1	0	0	1	0	0	398
1	0	0	-1	0	0	398
1	0	0	0	1	0	398
1	0	0	0	-1	0	398
1	0	0	0	0	1	398
1	0	0	0	0	-1	398
